DIMACS_lns/graph-1000-178.col
p edge 1000 1819
e 2 522
e 2 595
e 2 633
e 2 418
e 3 375
e 3 68
e 3 866
e 4 721
e 4 884
e 4 754
e 5 32
e 5 258
e 5 266
e 8 543
e 8 774
e 8 995
e 9 831
e 9 99
e 9 300
e 9 517
e 9 607
e 9 894
e 13 106
e 13 176
e 13 939
e 13 913
e 14 94
e 14 401
e 14 1000
e 14 283
e 15 210
e 15 298
e 15 328
e 15 920
e 16 752
e 16 19
e 16 720
e 16 306
e 16 643
e 16 573
e 16 330
e 17 922
e 17 942
e 17 963
e 17 563
e 17 176
e 18 476
e 18 238
e 18 341
e 18 277
e 18 736
e 18 903
e 18 480
e 19 194
e 19 954
e 19 957
e 19 251
e 19 705
e 19 806
e 19 681
e 20 868
e 20 194
e 20 665
e 21 155
e 21 868
e 21 234
e 22 498
e 22 126
e 22 372
e 22 401
e 22 77
e 22 628
e 22 337
e 23 825
e 23 376
e 23 739
e 23 84
e 23 446
e 24 827
e 24 815
e 24 448
e 24 910
e 25 726
e 25 121
e 25 774
e 25 841
e 26 162
e 26 153
e 26 674
e 27 591
e 27 509
e 27 470
e 27 592
e 27 520
e 28 299
e 28 64
e 28 687
e 30 549
e 30 489
e 30 252
e 30 696
e 30 466
e 30 822
e 30 441
e 31 961
e 31 681
e 31 218
e 31 510
e 32 664
e 32 401
e 32 318
e 32 856
e 32 82
e 32 828
e 34 325
e 34 774
e 34 500
e 34 936
e 34 728
e 34 743
e 35 556
e 35 521
e 35 601
e 35 427
e 35 168
e 37 910
e 37 258
e 37 286
e 38 740
e 38 765
e 38 917
e 38 978
e 38 80
e 38 437
e 39 366
e 39 630
e 39 579
e 41 748
e 41 258
e 41 427
e 42 517
e 42 120
e 42 301
e 43 973
e 43 678
e 43 509
e 43 827
e 43 598
e 43 198
e 43 67
e 43 784
e 44 699
e 44 248
e 44 666
e 44 998
e 44 618
e 44 800
e 45 925
e 45 549
e 45 230
e 45 664
e 46 50
e 46 224
e 46 576
e 46 168
e 47 904
e 47 787
e 47 192
e 48 560
e 48 609
e 48 376
e 50 988
e 50 977
e 50 335
e 50 669
e 50 683
e 51 591
e 51 947
e 51 645
e 51 447
e 52 735
e 52 210
e 52 338
e 52 759
e 52 578
e 54 525
e 54 295
e 54 272
e 54 175
e 55 67
e 55 307
e 55 641
e 55 962
e 55 762
e 58 827
e 58 793
e 58 492
e 60 855
e 60 932
e 60 651
e 61 881
e 61 418
e 61 516
e 61 80
e 61 293
e 61 699
e 62 330
e 62 570
e 62 687
e 62 883
e 62 124
e 62 91
e 64 804
e 64 514
e 64 482
e 64 527
e 64 740
e 64 118
e 65 294
e 65 785
e 65 283
e 65 936
e 65 968
e 65 388
e 66 114
e 66 400
e 66 386
e 67 384
e 67 480
e 67 184
e 68 330
e 68 706
e 68 578
e 68 528
e 68 723
e 68 555
e 68 151
e 72 385
e 72 722
e 72 560
e 72 219
e 72 498
e 74 166
e 74 746
e 74 88
e 74 594
e 74 668
e 74 718
e 76 205
e 76 405
e 76 305
e 76 627
e 76 708
e 76 467
e 77 200
e 77 397
e 78 91
e 78 240
e 78 475
e 78 174
e 78 229
e 79 551
e 79 215
e 79 97
e 79 124
e 80 270
e 80 476
e 80 814
e 81 545
e 81 603
e 81 549
e 81 501
e 82 387
e 82 375
e 82 340
e 82 410
e 83 163
e 83 790
e 83 491
e 84 899
e 84 200
e 84 238
e 84 163
e 84 328
e 84 637
e 84 391
e 85 698
e 85 564
e 85 91
e 86 658
e 86 101
e 86 536
e 87 112
e 87 685
e 87 396
e 87 691
e 88 598
e 88 613
e 88 310
e 88 463
e 89 870
e 89 780
e 89 714
e 89 209
e 89 384
e 89 168
e 89 900
e 90 184
e 90 844
e 90 608
e 90 981
e 91 234
e 91 643
e 91 906
e 94 525
e 94 868
e 94 642
e 96 466
e 96 154
e 96 845
e 96 493
e 96 756
e 96 826
e 97 411
e 97 376
e 97 586
e 99 290
e 99 806
e 99 375
e 99 936
e 99 543
e 99 449
e 101 148
e 101 267
e 102 546
e 102 714
e 102 840
e 102 856
e 102 801
e 103 513
e 103 154
e 103 637
e 105 272
e 105 241
e 105 121
e 105 876
e 105 162
e 105 379
e 106 732
e 106 975
e 108 232
e 108 838
e 108 797
e 108 732
e 112 620
e 112 800
e 112 510
e 112 817
e 112 759
e 112 780
e 114 359
e 114 560
e 118 132
e 118 658
e 118 688
e 118 884
e 118 595
e 118 370
e 120 857
e 120 325
e 120 910
e 120 134
e 121 749
e 121 236
e 121 154
e 121 604
e 121 503
e 121 753
e 122 161
e 122 327
e 122 488
e 122 174
e 124 949
e 124 728
e 124 243
e 124 167
e 124 266
e 126 258
e 126 756
e 126 135
e 127 770
e 127 992
e 127 238
e 128 775
e 128 951
e 128 611
e 128 943
e 128 491
e 128 972
e 129 463
e 129 233
e 129 682
e 129 869
e 131 893
e 131 938
e 131 586
e 131 679
e 132 530
e 132 385
e 132 695
e 132 912
e 133 300
e 133 528
e 133 149
e 133 949
e 133 194
e 133 372
e 133 574
e 134 931
e 134 815
e 134 917
e 134 539
e 135 218
e 135 527
e 135 152
e 135 517
e 135 712
e 135 512
e 136 492
e 136 812
e 136 641
e 136 684
e 137 838
e 137 754
e 137 591
e 137 295
e 137 941
e 140 660
e 140 942
e 140 255
e 140 469
e 141 396
e 141 699
e 141 680
e 141 1000
e 142 366
e 142 417
e 142 435
e 142 519
e 142 534
e 143 695
e 143 447
e 143 943
e 143 383
e 143 678
e 143 232
e 144 190
e 144 751
e 144 338
e 144 627
e 144 700
e 145 241
e 145 284
e 145 256
e 145 222
e 145 338
e 145 167
e 146 516
e 146 383
e 146 972
e 146 566
e 147 148
e 147 905
e 147 337
e 148 930
e 148 479
e 148 260
e 148 338
e 149 882
e 149 668
e 151 330
e 151 590
e 151 555
e 152 445
e 152 362
e 152 771
e 153 856
e 153 789
e 154 201
e 154 172
e 154 567
e 155 704
e 155 540
e 155 940
e 155 660
e 156 636
e 156 380
e 156 539
e 156 493
e 156 401
e 156 665
e 159 236
e 159 326
e 159 427
e 159 376
e 161 985
e 161 689
e 161 533
e 161 538
e 161 444
e 161 908
e 162 891
e 162 939
e 162 739
e 162 470
e 163 609
e 163 574
e 163 518
e 165 414
e 165 235
e 165 967
e 166 341
e 166 881
e 166 558
e 166 890
e 166 897
e 167 233
e 167 337
e 168 685
e 168 365
e 168 414
e 168 838
e 168 904
e 168 712
e 168 593
e 170 893
e 170 216
e 170 599
e 170 848
e 172 384
e 172 712
e 172 987
e 172 482
e 173 514
e 173 757
e 173 359
e 174 377
e 174 386
e 174 336
e 174 344
e 174 775
e 175 642
e 175 885
e 176 664
e 176 698
e 176 898
e 177 957
e 177 657
e 177 890
e 177 980
e 177 251
e 178 258
e 178 941
e 178 218
e 179 450
e 179 973
e 179 245
e 179 663
e 179 623
e 182 521
e 182 880
e 182 229
e 182 301
e 182 209
e 182 892
e 184 844
e 184 937
e 184 417
e 184 596
e 185 232
e 185 765
e 185 272
e 186 656
e 186 501
e 186 443
e 187 678
e 187 711
e 187 558
e 187 494
e 187 514
e 187 486
e 187 597
e 190 303
e 190 532
e 190 470
e 192 594
e 192 932
e 192 339
e 192 474
e 192 379
e 193 789
e 193 573
e 193 521
e 195 656
e 195 622
e 195 226
e 195 216
e 195 399
e 195 301
e 198 780
e 198 554
e 199 986
e 199 983
e 199 213
e 200 498
e 201 345
e 201 491
e 201 798
e 201 666
e 201 987
e 202 829
e 202 250
e 202 651
e 202 345
e 204 810
e 204 608
e 204 867
e 204 661
e 205 935
e 205 293
e 205 639
e 205 380
e 206 299
e 206 706
e 206 892
e 206 979
e 206 814
e 207 256
e 207 507
e 207 443
e 207 502
e 209 299
e 209 707
e 209 695
e 209 734
e 209 479
e 210 520
e 210 570
e 210 859
e 210 230
e 210 857
e 213 231
e 213 869
e 214 604
e 214 480
e 214 556
e 215 681
e 215 669
e 215 789
e 215 879
e 215 599
e 215 971
e 215 939
e 215 245
e 215 862
e 216 492
e 216 300
e 217 295
e 217 935
e 217 443
e 218 639
e 218 556
e 218 957
e 218 622
e 219 787
e 219 597
e 219 808
e 219 473
e 219 405
e 222 227
e 222 496
e 222 937
e 222 239
e 222 540
e 222 261
e 224 825
e 224 723
e 225 591
e 225 832
e 225 295
e 225 845
e 226 704
e 226 730
e 226 276
e 227 757
e 227 269
e 227 238
e 229 370
e 229 264
e 229 831
e 229 691
e 229 754
e 230 731
e 230 348
e 231 545
e 231 601
e 231 519
e 231 832
e 231 942
e 231 532
e 232 796
e 233 527
e 233 621
e 234 893
e 234 868
e 234 609
e 234 528
e 234 752
e 234 329
e 235 404
e 235 258
e 235 928
e 235 654
e 235 799
e 235 441
e 235 332
e 236 848
e 236 592
e 237 432
e 237 401
e 237 484
e 237 260
e 237 476
e 238 831
e 238 803
e 238 941
e 238 639
e 239 778
e 239 898
e 239 394
e 239 493
e 239 507
e 240 842
e 240 252
e 240 654
e 240 637
e 240 516
e 240 513
e 241 283
e 241 404
e 242 981
e 242 391
e 242 748
e 243 734
e 243 627
e 245 943
e 245 292
e 245 851
e 245 430
e 246 736
e 246 323
e 246 307
e 248 800
e 248 340
e 248 773
e 249 632
e 249 694
e 249 613
e 249 917
e 250 292
e 250 890
e 250 360
e 251 874
e 251 388
e 252 402
e 252 354
e 252 793
e 252 754
e 255 592
e 255 999
e 255 605
e 255 735
e 255 947
e 256 561
e 256 777
e 257 846
e 257 605
e 257 568
e 257 276
e 257 401
e 258 905
e 259 588
e 259 502
e 259 941
e 259 508
e 260 986
e 260 634
e 261 506
e 261 532
e 261 453
e 262 812
e 262 968
e 262 885
e 263 875
e 263 622
e 263 920
e 263 324
e 264 842
e 264 360
e 265 586
e 265 642
e 265 323
e 265 857
e 266 513
e 266 314
e 266 389
e 267 535
e 267 639
e 267 665
e 267 348
e 269 437
e 269 430
e 269 579
e 269 885
e 269 683
e 269 287
e 270 512
e 270 326
e 270 957
e 270 808
e 270 835
e 272 729
e 272 903
e 272 283
e 272 329
e 273 879
e 273 768
e 273 826
e 275 813
e 275 985
e 275 736
e 275 542
e 276 311
e 276 979
e 276 948
e 277 631
e 277 471
e 277 604
e 277 491
e 278 672
e 278 592
e 278 537
e 279 848
e 279 888
e 279 434
e 279 532
e 280 782
e 280 973
e 280 834
e 280 326
e 280 345
e 281 538
e 281 327
e 281 888
e 284 351
e 284 383
e 285 543
e 285 948
e 285 315
e 285 400
e 285 484
e 285 741
e 285 290
e 286 401
e 286 486
e 286 906
e 287 303
e 287 735
e 287 568
e 287 704
e 289 640
e 289 746
e 289 998
e 290 682
e 291 661
e 291 615
e 291 735
e 291 722
e 292 888
e 293 804
e 293 958
e 294 924
e 294 827
e 294 468
e 295 698
e 295 571
e 296 721
e 296 847
e 296 526
e 296 432
e 298 933
e 298 521
e 298 921
e 298 913
e 298 391
e 298 739
e 299 926
e 299 536
e 300 825
e 300 509
e 301 484
e 301 372
e 301 599
e 301 586
e 301 684
e 303 806
e 303 616
e 303 529
e 303 695
e 303 748
e 304 810
e 304 718
e 304 628
e 305 551
e 305 819
e 305 831
e 306 764
e 306 579
e 306 896
e 307 652
e 307 704
e 307 797
e 307 449
e 310 906
e 310 947
e 311 388
e 311 464
e 311 632
e 311 370
e 311 988
e 311 606
e 311 376
e 311 443
e 311 400
e 311 603
e 311 469
e 312 726
e 312 397
e 312 635
e 312 500
e 314 647
e 314 991
e 314 558
e 315 939
e 315 716
e 316 583
e 316 537
e 316 434
e 318 943
e 318 579
e 318 351
e 320 507
e 320 668
e 320 862
e 320 676
e 320 421
e 321 848
e 321 483
e 321 522
e 321 644
e 323 344
e 323 679
e 323 391
e 324 401
e 324 825
e 324 621
e 324 834
e 325 479
e 325 721
e 325 983
e 325 405
e 326 327
e 327 493
e 327 665
e 327 675
e 327 700
e 327 366
e 327 354
e 328 560
e 328 647
e 328 511
e 328 603
e 329 665
e 330 900
e 330 410
e 330 383
e 332 768
e 332 974
e 334 850
e 334 884
e 334 656
e 334 495
e 334 501
e 335 362
e 335 854
e 335 591
e 335 966
e 336 420
e 336 676
e 337 694
e 337 599
e 337 974
e 337 657
e 337 409
e 338 972
e 338 965
e 338 930
e 339 656
e 339 877
e 340 763
e 340 535
e 340 819
e 340 368
e 341 974
e 341 383
e 341 813
e 341 920
e 344 396
e 344 734
e 345 766
e 345 687
e 346 690
e 346 661
e 346 874
e 346 926
e 347 549
e 347 418
e 347 448
e 348 509
e 348 631
e 348 556
e 350 519
e 350 580
e 350 642
e 351 878
e 351 591
e 353 354
e 353 661
e 353 987
e 353 556
e 356 801
e 356 528
e 356 800
e 356 380
e 356 554
e 356 401
e 359 787
e 359 908
e 359 607
e 360 472
e 360 867
e 360 367
e 362 449
e 362 816
e 362 475
e 365 556
e 365 940
e 366 743
e 366 568
e 366 516
e 367 496
e 367 658
e 368 969
e 368 843
e 370 895
e 370 723
e 371 663
e 371 964
e 371 408
e 371 760
e 371 867
e 372 672
e 375 684
e 375 906
e 375 562
e 377 684
e 377 384
e 378 382
e 378 470
e 378 647
e 378 527
e 379 399
e 379 394
e 380 741
e 380 596
e 380 753
e 380 580
e 380 840
e 382 414
e 382 472
e 382 707
e 383 724
e 383 683
e 384 888
e 384 596
e 384 938
e 385 777
e 385 538
e 385 401
e 386 388
e 386 585
e 387 711
e 387 534
e 387 742
e 387 526
e 387 593
e 387 753
e 388 409
e 388 921
e 388 978
e 389 977
e 389 854
e 391 936
e 391 434
e 391 817
e 391 801
e 393 880
e 393 964
e 393 734
e 393 971
e 393 471
e 393 708
e 393 612
e 394 721
e 394 645
e 397 790
e 397 749
e 399 852
e 399 843
e 399 819
e 400 691
e 400 594
e 400 444
e 400 714
e 401 620
e 401 948
e 402 799
e 402 774
e 402 842
e 402 844
e 404 826
e 404 688
e 405 903
e 405 609
e 405 878
e 405 539
e 405 553
e 405 850
e 407 679
e 407 675
e 407 765
e 408 500
e 408 592
e 408 982
e 409 457
e 410 774
e 411 497
e 411 438
e 411 951
e 411 636
e 412 909
e 412 684
e 412 635
e 413 924
e 413 427
e 413 423
e 414 546
e 417 899
e 417 508
e 417 756
e 417 421
e 418 690
e 418 590
e 420 787
e 420 521
e 420 841
e 420 513
e 420 965
e 421 835
e 421 817
e 421 816
e 421 748
e 421 742
e 421 665
e 422 585
e 422 941
e 422 826
e 423 891
e 423 864
e 423 798
e 423 847
e 424 667
e 424 751
e 424 514
e 427 958
e 428 585
e 428 774
e 428 826
e 429 858
e 429 675
e 429 493
e 430 864
e 432 982
e 432 463
e 434 736
e 435 982
e 435 503
e 437 925
e 437 618
e 438 739
e 438 822
e 438 766
e 438 496
e 441 538
e 441 476
e 441 680
e 441 770
e 442 573
e 442 881
e 442 892
e 443 814
e 444 979
e 444 615
e 445 925
e 445 474
e 446 940
e 446 869
e 446 593
e 446 579
e 447 942
e 447 995
e 448 506
e 448 741
e 448 466
e 449 932
e 450 486
e 450 686
e 452 558
e 452 685
e 452 578
e 453 958
e 453 580
e 453 943
e 454 822
e 454 703
e 454 743
e 457 664
e 457 898
e 457 799
e 461 764
e 461 520
e 461 741
e 461 971
e 461 917
e 462 552
e 462 494
e 462 777
e 463 766
e 463 686
e 464 846
e 464 771
e 466 770
e 466 633
e 466 602
e 466 845
e 467 688
e 467 846
e 467 712
e 467 858
e 468 780
e 468 698
e 468 607
e 469 859
e 469 502
e 470 969
e 470 666
e 471 774
e 471 848
e 471 981
e 472 547
e 472 726
e 472 813
e 472 805
e 473 534
e 473 887
e 473 546
e 474 895
e 474 607
e 475 814
e 479 987
e 479 997
e 479 763
e 480 820
e 482 931
e 482 507
e 482 884
e 483 910
e 483 985
e 483 500
e 484 680
e 485 739
e 485 509
e 485 846
e 485 603
e 486 575
e 488 842
e 488 763
e 489 760
e 489 979
e 489 962
e 489 579
e 489 559
e 491 588
e 491 590
e 491 795
e 491 917
e 492 973
e 492 723
e 493 988
e 494 852
e 494 553
e 494 881
e 494 599
e 494 982
e 494 723
e 494 749
e 495 552
e 495 968
e 495 620
e 495 666
e 497 778
e 497 716
e 499 653
e 499 642
e 499 741
e 500 707
e 500 557
e 500 567
e 500 622
e 501 922
e 501 790
e 502 589
e 502 948
e 503 626
e 503 900
e 503 743
e 504 534
e 504 813
e 504 773
e 506 608
e 507 641
e 507 562
e 508 954
e 508 827
e 509 527
e 510 977
e 510 712
e 511 939
e 511 705
e 511 753
e 511 605
e 512 642
e 512 832
e 512 931
e 513 834
e 513 573
e 513 538
e 513 948
e 513 999
e 514 936
e 514 533
e 514 739
e 516 602
e 516 686
e 516 926
e 517 947
e 517 790
e 517 870
e 518 534
e 518 900
e 518 703
e 518 835
e 519 715
e 521 539
e 521 780
e 521 894
e 522 855
e 522 903
e 522 746
e 522 939
e 522 652
e 525 982
e 525 731
e 525 859
e 525 689
e 526 851
e 526 760
e 528 735
e 528 782
e 529 692
e 529 611
e 529 643
e 530 696
e 530 785
e 530 997
e 530 777
e 531 937
e 531 583
e 531 985
e 531 618
e 532 948
e 532 874
e 532 987
e 532 815
e 533 774
e 533 915
e 534 787
e 534 630
e 534 908
e 535 864
e 535 888
e 535 815
e 535 681
e 535 875
e 536 681
e 536 905
e 536 942
e 536 867
e 537 903
e 537 943
e 537 793
e 538 722
e 538 816
e 539 804
e 539 842
e 540 817
e 540 813
e 542 662
e 542 808
e 543 754
e 543 653
e 543 652
e 545 740
e 545 613
e 545 563
e 545 782
e 546 879
e 546 746
e 546 921
e 546 883
e 547 974
e 547 575
e 547 882
e 548 898
e 548 885
e 548 558
e 549 688
e 551 708
e 551 622
e 551 576
e 551 562
e 551 681
e 552 674
e 553 645
e 553 720
e 553 683
e 553 859
e 554 659
e 555 926
e 555 694
e 557 630
e 557 558
e 557 812
e 558 928
e 559 983
e 559 714
e 559 889
e 559 915
e 560 997
e 561 896
e 561 589
e 562 595
e 562 903
e 563 899
e 563 746
e 563 977
e 564 591
e 564 889
e 564 875
e 566 606
e 566 876
e 567 714
e 568 892
e 568 870
e 568 601
e 570 805
e 570 810
e 570 608
e 570 634
e 571 601
e 571 816
e 571 620
e 572 915
e 572 973
e 572 775
e 573 813
e 574 998
e 574 936
e 574 847
e 574 943
e 575 671
e 576 695
e 576 595
e 576 820
e 576 691
e 576 973
e 576 591
e 578 807
e 578 789
e 578 829
e 579 840
e 579 759
e 580 715
e 580 782
e 580 644
e 580 609
e 583 854
e 588 671
e 588 689
e 589 844
e 589 656
e 590 972
e 591 720
e 592 700
e 592 991
e 593 607
e 594 880
e 594 841
e 594 858
e 594 885
e 595 645
e 595 943
e 595 748
e 595 898
e 597 800
e 597 757
e 597 716
e 598 832
e 599 724
e 601 712
e 601 718
e 602 753
e 603 635
e 603 763
e 604 681
e 606 712
e 606 828
e 606 841
e 607 667
e 609 739
e 609 931
e 611 887
e 611 704
e 612 620
e 612 692
e 612 964
e 612 682
e 612 987
e 612 867
e 612 709
e 613 724
e 613 951
e 615 621
e 615 789
e 616 862
e 616 639
e 616 982
e 618 754
e 618 921
e 620 881
e 620 819
e 621 731
e 621 740
e 623 967
e 623 630
e 626 859
e 626 966
e 627 764
e 628 988
e 628 721
e 628 975
e 631 981
e 632 645
e 633 882
e 634 890
e 636 814
e 637 726
e 637 903
e 639 789
e 640 943
e 640 724
e 640 893
e 641 825
e 641 971
e 641 736
e 643 855
e 644 831
e 647 760
e 647 949
e 651 773
e 652 671
e 652 679
e 653 977
e 654 880
e 657 807
e 658 930
e 658 841
e 658 716
e 658 891
e 659 921
e 659 943
e 659 692
e 660 873
e 660 965
e 660 966
e 661 680
e 661 774
e 661 909
e 662 685
e 662 856
e 663 676
e 663 972
e 664 963
e 665 813
e 665 897
e 665 853
e 667 795
e 668 921
e 669 912
e 669 928
e 671 751
e 672 685
e 674 851
e 674 900
e 675 904
e 675 913
e 676 829
e 678 862
e 680 873
e 682 903
e 682 995
e 683 819
e 685 923
e 686 754
e 686 934
e 688 798
e 688 866
e 688 819
e 690 873
e 690 928
e 695 803
e 696 754
e 696 891
e 696 795
e 696 926
e 698 782
e 699 832
e 703 975
e 703 729
e 703 763
e 705 831
e 705 752
e 705 820
e 706 951
e 706 805
e 707 709
e 709 806
e 711 774
e 711 926
e 711 922
e 712 977
e 714 962
e 714 720
e 714 935
e 714 746
e 715 834
e 715 735
e 716 730
e 716 842
e 718 964
e 720 906
e 721 972
e 723 778
e 726 870
e 728 753
e 728 759
e 729 841
e 729 923
e 730 841
e 731 995
e 732 964
e 732 843
e 734 880
e 734 992
e 734 891
e 735 850
e 739 799
e 739 957
e 739 998
e 740 887
e 740 923
e 741 894
e 742 999
e 746 968
e 748 971
e 752 896
e 757 920
e 759 787
e 759 774
e 760 926
e 760 954
e 760 853
e 762 845
e 762 866
e 762 924
e 763 774
e 764 998
e 764 999
e 766 892
e 766 972
e 766 847
e 768 1000
e 770 866
e 771 859
e 780 826
e 780 933
e 780 813
e 784 917
e 784 862
e 785 855
e 793 936
e 795 879
e 796 912
e 796 909
e 797 828
e 803 967
e 803 991
e 804 913
e 807 992
e 808 812
e 812 983
e 813 963
e 814 857
e 817 829
e 825 938
e 825 860
e 825 864
e 828 935
e 835 963
e 844 920
e 844 873
e 845 977
e 845 968
e 845 926
e 846 855
e 846 951
e 848 889
e 851 854
e 851 876
e 852 854
e 852 963
e 852 968
e 853 888
e 854 869
e 857 961
e 860 906
e 860 965
e 862 964
e 862 878
e 867 877
e 870 1000
e 876 965
e 877 961
e 880 980
e 880 892
e 880 909
e 883 995
e 885 920
e 887 934
e 890 963
e 892 897
e 893 909
e 894 980
e 894 987
e 895 913
e 903 942
e 920 923
e 921 936
e 924 969
e 931 940
e 933 988
e 934 937
e 938 978
e 942 943
e 943 986
e 966 988
e 967 974
e 972 975
e 986 1000
